2015131
0,93,34,54,49,39,35,6,107,27,25,136,137,7,158,30,151,147,94,173,9,219,193,4,63,47,124,224,135,187,113,163,64,13,125,123,69,85,22,190,166,200,142,138,181,40,221,1,220,212,196,153,213,45,197,110,164,144,43,21,143,36,195,33,214,168,74,101,111,154,26,191,95,86,117,70,66,134,161,209,228,132,129,77,178,19,100,182,48,73,156,206,42,82,162,225,59,133,222,188,14,155,210,90,8,223,32,202,67,88,106,115,165,204,15,112,18,10,114,92,167,211,109,12,16,29,46,96,207,56,75,78,83,119,121,208,205,199,175,84,81,229,103,169,149,170,152,145,102,44,28,122,24,131,148,177,2,68,72,130,192,5,108,89,185,87,227,128,141,120,23,201,118,51,79,60,58,37,160,183,150,61,80,116,38,146,126,97,159,176,41,226,203,171,186,20,3,216,11,157,76,98,218,215,174,17,52,53,55,91,99,65,104,105,127,140,189,179,57,172,180,194,217,198,50,184,62,71,31,139,0